run_GA_72/temp/model/design_smt2.smt2
; SMT-LIBv2 description generated by Yosys 0.63 (git sha1 70a11c6bf0e8dd669f56c7da3587f78b405138e2, clang++ 17.0.0 -fPIC -O3)
; yosys-smt2-module top
(declare-sort |top_s| 0)
(declare-fun |top_is| (|top_s|) Bool)
; yosys-smt2-anyseq top#0 1 $auto$setundef.cc:533:execute$810
; yosys-smt2-witness {"offset": 0, "path": ["\\_witness_", "\\anyseq_auto_setundef_cc_533_execute_810"], "smtname": 0, "smtoffset": 0, "type": "seq", "width": 1}
(declare-fun |top#0| (|top_s|) (_ BitVec 1)) ; \_witness_.anyseq_auto_setundef_cc_533_execute_810
; yosys-smt2-wire _witness_.anyseq_auto_setundef_cc_533_execute_810 1
(define-fun |top_n _witness_.anyseq_auto_setundef_cc_533_execute_810| ((state |top_s|)) Bool (= ((_ extract 0 0) (|top#0| state)) #b1))
; yosys-smt2-anyseq top#1 3 $auto$setundef.cc:533:execute$808
; yosys-smt2-witness {"offset": 0, "path": ["\\_witness_", "\\anyseq_auto_setundef_cc_533_execute_808"], "smtname": 1, "smtoffset": 0, "type": "seq", "width": 3}
(declare-fun |top#1| (|top_s|) (_ BitVec 3)) ; \_witness_.anyseq_auto_setundef_cc_533_execute_808
; yosys-smt2-wire _witness_.anyseq_auto_setundef_cc_533_execute_808 3
(define-fun |top_n _witness_.anyseq_auto_setundef_cc_533_execute_808| ((state |top_s|)) (_ BitVec 3) (|top#1| state))
; yosys-smt2-anyseq top#2 3 $auto$setundef.cc:533:execute$806
; yosys-smt2-witness {"offset": 0, "path": ["\\_witness_", "\\anyseq_auto_setundef_cc_533_execute_806"], "smtname": 2, "smtoffset": 0, "type": "seq", "width": 3}
(declare-fun |top#2| (|top_s|) (_ BitVec 3)) ; \_witness_.anyseq_auto_setundef_cc_533_execute_806
; yosys-smt2-wire _witness_.anyseq_auto_setundef_cc_533_execute_806 3
(define-fun |top_n _witness_.anyseq_auto_setundef_cc_533_execute_806| ((state |top_s|)) (_ BitVec 3) (|top#2| state))
; yosys-smt2-anyseq top#3 3 $auto$setundef.cc:533:execute$804
; yosys-smt2-witness {"offset": 0, "path": ["\\_witness_", "\\anyseq_auto_setundef_cc_533_execute_804"], "smtname": 3, "smtoffset": 0, "type": "seq", "width": 3}
(declare-fun |top#3| (|top_s|) (_ BitVec 3)) ; \_witness_.anyseq_auto_setundef_cc_533_execute_804
; yosys-smt2-wire _witness_.anyseq_auto_setundef_cc_533_execute_804 3
(define-fun |top_n _witness_.anyseq_auto_setundef_cc_533_execute_804| ((state |top_s|)) (_ BitVec 3) (|top#3| state))
; yosys-smt2-anyseq top#4 3 $auto$setundef.cc:533:execute$802
; yosys-smt2-witness {"offset": 0, "path": ["\\_witness_", "\\anyseq_auto_setundef_cc_533_execute_802"], "smtname": 4, "smtoffset": 0, "type": "seq", "width": 3}
(declare-fun |top#4| (|top_s|) (_ BitVec 3)) ; \_witness_.anyseq_auto_setundef_cc_533_execute_802
; yosys-smt2-wire _witness_.anyseq_auto_setundef_cc_533_execute_802 3
(define-fun |top_n _witness_.anyseq_auto_setundef_cc_533_execute_802| ((state |top_s|)) (_ BitVec 3) (|top#4| state))
; yosys-smt2-anyseq top#5 3 $auto$setundef.cc:533:execute$800
; yosys-smt2-witness {"offset": 0, "path": ["\\_witness_", "\\anyseq_auto_setundef_cc_533_execute_800"], "smtname": 5, "smtoffset": 0, "type": "seq", "width": 3}
(declare-fun |top#5| (|top_s|) (_ BitVec 3)) ; \_witness_.anyseq_auto_setundef_cc_533_execute_800
; yosys-smt2-wire _witness_.anyseq_auto_setundef_cc_533_execute_800 3
(define-fun |top_n _witness_.anyseq_auto_setundef_cc_533_execute_800| ((state |top_s|)) (_ BitVec 3) (|top#5| state))
; yosys-smt2-anyseq top#6 3 $auto$setundef.cc:533:execute$798
; yosys-smt2-witness {"offset": 0, "path": ["\\_witness_", "\\anyseq_auto_setundef_cc_533_execute_798"], "smtname": 6, "smtoffset": 0, "type": "seq", "width": 3}
(declare-fun |top#6| (|top_s|) (_ BitVec 3)) ; \_witness_.anyseq_auto_setundef_cc_533_execute_798
; yosys-smt2-wire _witness_.anyseq_auto_setundef_cc_533_execute_798 3
(define-fun |top_n _witness_.anyseq_auto_setundef_cc_533_execute_798| ((state |top_s|)) (_ BitVec 3) (|top#6| state))
; yosys-smt2-anyseq top#7 3 $auto$setundef.cc:533:execute$796
; yosys-smt2-witness {"offset": 0, "path": ["\\_witness_", "\\anyseq_auto_setundef_cc_533_execute_796"], "smtname": 7, "smtoffset": 0, "type": "seq", "width": 3}
(declare-fun |top#7| (|top_s|) (_ BitVec 3)) ; \_witness_.anyseq_auto_setundef_cc_533_execute_796
; yosys-smt2-wire _witness_.anyseq_auto_setundef_cc_533_execute_796 3
(define-fun |top_n _witness_.anyseq_auto_setundef_cc_533_execute_796| ((state |top_s|)) (_ BitVec 3) (|top#7| state))
; yosys-smt2-anyseq top#8 3 $auto$setundef.cc:533:execute$794
; yosys-smt2-witness {"offset": 0, "path": ["\\_witness_", "\\anyseq_auto_setundef_cc_533_execute_794"], "smtname": 8, "smtoffset": 0, "type": "seq", "width": 3}
(declare-fun |top#8| (|top_s|) (_ BitVec 3)) ; \_witness_.anyseq_auto_setundef_cc_533_execute_794
; yosys-smt2-wire _witness_.anyseq_auto_setundef_cc_533_execute_794 3
(define-fun |top_n _witness_.anyseq_auto_setundef_cc_533_execute_794| ((state |top_s|)) (_ BitVec 3) (|top#8| state))
; yosys-smt2-anyseq top#9 3 $auto$setundef.cc:533:execute$792
; yosys-smt2-witness {"offset": 0, "path": ["\\_witness_", "\\anyseq_auto_setundef_cc_533_execute_792"], "smtname": 9, "smtoffset": 0, "type": "seq", "width": 3}
(declare-fun |top#9| (|top_s|) (_ BitVec 3)) ; \_witness_.anyseq_auto_setundef_cc_533_execute_792
; yosys-smt2-wire _witness_.anyseq_auto_setundef_cc_533_execute_792 3
(define-fun |top_n _witness_.anyseq_auto_setundef_cc_533_execute_792| ((state |top_s|)) (_ BitVec 3) (|top#9| state))
; yosys-smt2-anyseq top#10 3 $auto$setundef.cc:533:execute$790
; yosys-smt2-witness {"offset": 0, "path": ["\\_witness_", "\\anyseq_auto_setundef_cc_533_execute_790"], "smtname": 10, "smtoffset": 0, "type": "seq", "width": 3}
(declare-fun |top#10| (|top_s|) (_ BitVec 3)) ; \_witness_.anyseq_auto_setundef_cc_533_execute_790
; yosys-smt2-wire _witness_.anyseq_auto_setundef_cc_533_execute_790 3
(define-fun |top_n _witness_.anyseq_auto_setundef_cc_533_execute_790| ((state |top_s|)) (_ BitVec 3) (|top#10| state))
; yosys-smt2-anyseq top#11 3 $auto$setundef.cc:533:execute$788
; yosys-smt2-witness {"offset": 0, "path": ["\\_witness_", "\\anyseq_auto_setundef_cc_533_execute_788"], "smtname": 11, "smtoffset": 0, "type": "seq", "width": 3}
(declare-fun |top#11| (|top_s|) (_ BitVec 3)) ; \_witness_.anyseq_auto_setundef_cc_533_execute_788
; yosys-smt2-wire _witness_.anyseq_auto_setundef_cc_533_execute_788 3
(define-fun |top_n _witness_.anyseq_auto_setundef_cc_533_execute_788| ((state |top_s|)) (_ BitVec 3) (|top#11| state))
; yosys-smt2-anyseq top#12 3 $auto$setundef.cc:533:execute$786
; yosys-smt2-witness {"offset": 0, "path": ["\\_witness_", "\\anyseq_auto_setundef_cc_533_execute_786"], "smtname": 12, "smtoffset": 0, "type": "seq", "width": 3}
(declare-fun |top#12| (|top_s|) (_ BitVec 3)) ; \_witness_.anyseq_auto_setundef_cc_533_execute_786
; yosys-smt2-wire _witness_.anyseq_auto_setundef_cc_533_execute_786 3
(define-fun |top_n _witness_.anyseq_auto_setundef_cc_533_execute_786| ((state |top_s|)) (_ BitVec 3) (|top#12| state))
; yosys-smt2-anyseq top#13 3 $auto$setundef.cc:533:execute$784
; yosys-smt2-witness {"offset": 0, "path": ["\\_witness_", "\\anyseq_auto_setundef_cc_533_execute_784"], "smtname": 13, "smtoffset": 0, "type": "seq", "width": 3}
(declare-fun |top#13| (|top_s|) (_ BitVec 3)) ; \_witness_.anyseq_auto_setundef_cc_533_execute_784
; yosys-smt2-wire _witness_.anyseq_auto_setundef_cc_533_execute_784 3
(define-fun |top_n _witness_.anyseq_auto_setundef_cc_533_execute_784| ((state |top_s|)) (_ BitVec 3) (|top#13| state))
; yosys-smt2-anyseq top#14 3 $auto$setundef.cc:533:execute$782
; yosys-smt2-witness {"offset": 0, "path": ["\\_witness_", "\\anyseq_auto_setundef_cc_533_execute_782"], "smtname": 14, "smtoffset": 0, "type": "seq", "width": 3}
(declare-fun |top#14| (|top_s|) (_ BitVec 3)) ; \_witness_.anyseq_auto_setundef_cc_533_execute_782
; yosys-smt2-wire _witness_.anyseq_auto_setundef_cc_533_execute_782 3
(define-fun |top_n _witness_.anyseq_auto_setundef_cc_533_execute_782| ((state |top_s|)) (_ BitVec 3) (|top#14| state))
; yosys-smt2-anyseq top#15 3 $auto$setundef.cc:533:execute$780
; yosys-smt2-witness {"offset": 0, "path": ["\\_witness_", "\\anyseq_auto_setundef_cc_533_execute_780"], "smtname": 15, "smtoffset": 0, "type": "seq", "width": 3}
(declare-fun |top#15| (|top_s|) (_ BitVec 3)) ; \_witness_.anyseq_auto_setundef_cc_533_execute_780
; yosys-smt2-wire _witness_.anyseq_auto_setundef_cc_533_execute_780 3
(define-fun |top_n _witness_.anyseq_auto_setundef_cc_533_execute_780| ((state |top_s|)) (_ BitVec 3) (|top#15| state))
; yosys-smt2-anyseq top#16 3 $auto$setundef.cc:533:execute$778
; yosys-smt2-witness {"offset": 0, "path": ["\\_witness_", "\\anyseq_auto_setundef_cc_533_execute_778"], "smtname": 16, "smtoffset": 0, "type": "seq", "width": 3}
(declare-fun |top#16| (|top_s|) (_ BitVec 3)) ; \_witness_.anyseq_auto_setundef_cc_533_execute_778
; yosys-smt2-wire _witness_.anyseq_auto_setundef_cc_533_execute_778 3
(define-fun |top_n _witness_.anyseq_auto_setundef_cc_533_execute_778| ((state |top_s|)) (_ BitVec 3) (|top#16| state))
; yosys-smt2-anyseq top#17 3 $auto$setundef.cc:533:execute$776
; yosys-smt2-witness {"offset": 0, "path": ["\\_witness_", "\\anyseq_auto_setundef_cc_533_execute_776"], "smtname": 17, "smtoffset": 0, "type": "seq", "width": 3}
(declare-fun |top#17| (|top_s|) (_ BitVec 3)) ; \_witness_.anyseq_auto_setundef_cc_533_execute_776
; yosys-smt2-wire _witness_.anyseq_auto_setundef_cc_533_execute_776 3
(define-fun |top_n _witness_.anyseq_auto_setundef_cc_533_execute_776| ((state |top_s|)) (_ BitVec 3) (|top#17| state))
; yosys-smt2-witness {"offset": 0, "path": ["$auto$async2sync.cc:107:execute$756"], "smtname": 18, "smtoffset": 0, "type": "reg", "width": 1}
(declare-fun |top#18| (|top_s|) (_ BitVec 1)) ; $auto$async2sync.cc:107:execute$756
; yosys-smt2-register $auto$async2sync.cc:107:execute$756 1
(define-fun |top_n $auto$async2sync.cc:107:execute$756| ((state |top_s|)) Bool (= ((_ extract 0 0) (|top#18| state)) #b1))
; yosys-smt2-anyinit top#19 3 dut_temp.sv:32.4-42.7
; yosys-smt2-witness {"offset": 0, "path": ["\\_witness_", "\\anyinit_procdff_744"], "smtname": 19, "smtoffset": 0, "type": "init", "width": 3}
(declare-fun |top#19| (|top_s|) (_ BitVec 3)) ; \_witness_.anyinit_procdff_744
; yosys-smt2-register _witness_.anyinit_procdff_744 3
; yosys-smt2-wire _witness_.anyinit_procdff_744 3
(define-fun |top_n _witness_.anyinit_procdff_744| ((state |top_s|)) (_ BitVec 3) (|top#19| state))
; yosys-smt2-witness {"offset": 0, "path": ["$auto$async2sync.cc:116:execute$760"], "smtname": 20, "smtoffset": 0, "type": "reg", "width": 1}
(declare-fun |top#20| (|top_s|) (_ BitVec 1)) ; $auto$async2sync.cc:116:execute$760
; yosys-smt2-register $auto$async2sync.cc:116:execute$760 1
(define-fun |top_n $auto$async2sync.cc:116:execute$760| ((state |top_s|)) Bool (= ((_ extract 0 0) (|top#20| state)) #b1))
; yosys-smt2-anyinit top#21 1 dut_temp.sv:43.4-207.7
; yosys-smt2-witness {"offset": 0, "path": ["\\_witness_", "\\anyinit_auto_proc_dlatch_cc_432_proc_dlatch_575"], "smtname": 21, "smtoffset": 0, "type": "init", "width": 1}
(declare-fun |top#21| (|top_s|) (_ BitVec 1)) ; \_witness_.anyinit_auto_proc_dlatch_cc_432_proc_dlatch_575
; yosys-smt2-register _witness_.anyinit_auto_proc_dlatch_cc_432_proc_dlatch_575 1
; yosys-smt2-wire _witness_.anyinit_auto_proc_dlatch_cc_432_proc_dlatch_575 1
(define-fun |top_n _witness_.anyinit_auto_proc_dlatch_cc_432_proc_dlatch_575| ((state |top_s|)) Bool (= ((_ extract 0 0) (|top#21| state)) #b1))
; yosys-smt2-anyinit top#22 1 dut_temp.sv:286.1-289.4
; yosys-smt2-witness {"offset": 0, "path": ["\\_witness_", "\\anyinit_procdff_708"], "smtname": 22, "smtoffset": 0, "type": "init", "width": 1}
(declare-fun |top#22| (|top_s|) (_ BitVec 1)) ; \_witness_.anyinit_procdff_708
; yosys-smt2-register _witness_.anyinit_procdff_708 1
; yosys-smt2-wire _witness_.anyinit_procdff_708 1
(define-fun |top_n _witness_.anyinit_procdff_708| ((state |top_s|)) Bool (= ((_ extract 0 0) (|top#22| state)) #b1))
; yosys-smt2-anyinit top#23 1 dut_temp.sv:286.1-289.4
; yosys-smt2-witness {"offset": 0, "path": ["\\_witness_", "\\anyinit_procdff_709"], "smtname": 23, "smtoffset": 0, "type": "init", "width": 1}
(declare-fun |top#23| (|top_s|) (_ BitVec 1)) ; \_witness_.anyinit_procdff_709
; yosys-smt2-register _witness_.anyinit_procdff_709 1
; yosys-smt2-wire _witness_.anyinit_procdff_709 1
(define-fun |top_n _witness_.anyinit_procdff_709| ((state |top_s|)) Bool (= ((_ extract 0 0) (|top#23| state)) #b1))
; yosys-smt2-anyinit top#24 3 dut_temp.sv:286.1-289.4
; yosys-smt2-witness {"offset": 0, "path": ["\\_witness_", "\\anyinit_procdff_710"], "smtname": 24, "smtoffset": 0, "type": "init", "width": 3}
(declare-fun |top#24| (|top_s|) (_ BitVec 3)) ; \_witness_.anyinit_procdff_710
; yosys-smt2-register _witness_.anyinit_procdff_710 3
; yosys-smt2-wire _witness_.anyinit_procdff_710 3
(define-fun |top_n _witness_.anyinit_procdff_710| ((state |top_s|)) (_ BitVec 3) (|top#24| state))
; yosys-smt2-anyinit top#25 1 dut_temp.sv:286.1-289.4
; yosys-smt2-witness {"offset": 0, "path": ["\\_witness_", "\\anyinit_procdff_711"], "smtname": 25, "smtoffset": 0, "type": "init", "width": 1}
(declare-fun |top#25| (|top_s|) (_ BitVec 1)) ; \_witness_.anyinit_procdff_711
; yosys-smt2-register _witness_.anyinit_procdff_711 1
; yosys-smt2-wire _witness_.anyinit_procdff_711 1
(define-fun |top_n _witness_.anyinit_procdff_711| ((state |top_s|)) Bool (= ((_ extract 0 0) (|top#25| state)) #b1))
; yosys-smt2-witness {"offset": 0, "path": ["\\f_past_valid"], "smtname": 26, "smtoffset": 0, "type": "reg", "width": 1}
(declare-fun |top#26| (|top_s|) (_ BitVec 1)) ; \f_past_valid
(define-fun |top#27| ((state |top_s|)) Bool (not (or  (= ((_ extract 0 0) (|top#22| state)) #b1) false))) ; $logic_not$dut_temp.sv:287$138_Y
(define-fun |top#28| ((state |top_s|)) Bool (and (or  (= ((_ extract 0 0) (|top#26| state)) #b1) false) (or  (|top#27| state) false))) ; $logic_and$dut_temp.sv:287$139_Y
(define-fun |top#29| ((state |top_s|)) Bool (and (or  (|top#28| state) false) (or  (= ((_ extract 0 0) (|top#23| state)) #b1) false))) ; $logic_and$dut_temp.sv:287$140_Y
(define-fun |top#30| ((state |top_s|)) Bool (= (|top#24| state) #b001)) ; $eq$dut_temp.sv:287$141_Y
(define-fun |top#31| ((state |top_s|)) Bool (and (or  (|top#29| state) false) (or  (|top#30| state) false))) ; $logic_and$dut_temp.sv:287$142_Y
(define-fun |top#32| ((state |top_s|)) (_ BitVec 1) (bvnot (|top#25| state))) ; $eq$dut_temp.sv:287$143_Y
(define-fun |top#33| ((state |top_s|)) Bool (and (or  (|top#31| state) false) (or  (= ((_ extract 0 0) (|top#32| state)) #b1) false))) ; $logic_and$dut_temp.sv:287$144_Y
(define-fun |top#34| ((state |top_s|)) (_ BitVec 1) (ite (|top#33| state) #b1 #b0)) ; \a_nstate_trans_001_to_010_r4_alt_EN
; yosys-smt2-wire a_nstate_trans_001_to_010_r4_alt_EN 1
(define-fun |top_n a_nstate_trans_001_to_010_r4_alt_EN| ((state |top_s|)) Bool (= ((_ extract 0 0) (|top#34| state)) #b1))
(declare-fun |top#35| (|top_s|) Bool) ; \clk
; yosys-smt2-input clk 1
; yosys-smt2-wire clk 1
; yosys-smt2-clock clk posedge
; yosys-smt2-witness {"offset": 0, "path": ["\\clk"], "smtname": "clk", "smtoffset": 0, "type": "posedge", "width": 1}
; yosys-smt2-witness {"offset": 0, "path": ["\\clk"], "smtname": "clk", "smtoffset": 0, "type": "input", "width": 1}
(define-fun |top_n clk| ((state |top_s|)) Bool (|top#35| state))
(declare-fun |top#36| (|top_s|) (_ BitVec 8)) ; \d_in_0
; yosys-smt2-input d_in_0 8
; yosys-smt2-wire d_in_0 8
; yosys-smt2-witness {"offset": 0, "path": ["\\d_in_0"], "smtname": "d_in_0", "smtoffset": 0, "type": "input", "width": 8}
(define-fun |top_n d_in_0| ((state |top_s|)) (_ BitVec 8) (|top#36| state))
(declare-fun |top#37| (|top_s|) (_ BitVec 8)) ; \d_in_1
; yosys-smt2-input d_in_1 8
; yosys-smt2-wire d_in_1 8
; yosys-smt2-witness {"offset": 0, "path": ["\\d_in_1"], "smtname": "d_in_1", "smtoffset": 0, "type": "input", "width": 8}
(define-fun |top_n d_in_1| ((state |top_s|)) (_ BitVec 8) (|top#37| state))
; yosys-smt2-anyinit top#38 1 dut_temp.sv:26.4-31.7
; yosys-smt2-witness {"offset": 0, "path": ["\\d_o"], "smtname": 38, "smtoffset": 0, "type": "init", "width": 1}
(declare-fun |top#38| (|top_s|) (_ BitVec 1)) ; \d_o
; yosys-smt2-output d_o 1
; yosys-smt2-register d_o 1
; yosys-smt2-wire d_o 1
(define-fun |top_n d_o| ((state |top_s|)) Bool (= ((_ extract 0 0) (|top#38| state)) #b1))
(declare-fun |top#39| (|top_s|) (_ BitVec 1)) ; \rst
(define-fun |top#40| ((state |top_s|)) (_ BitVec 3) (ite (= ((_ extract 0 0) (|top#39| state)) #b1) (|top#19| state) #b000)) ; \pstate
(define-fun |top#41| ((state |top_s|)) Bool (= (|top#40| state) #b111)) ; $procmux$161_CMP
(define-fun |top#42| ((state |top_s|)) Bool (= (|top#40| state) #b110)) ; $procmux$193_CMP
(define-fun |top#43| ((state |top_s|)) Bool (= (|top#40| state) #b101)) ; $procmux$230_CMP
(define-fun |top#44| ((state |top_s|)) Bool (= (|top#40| state) #b100)) ; $procmux$272_CMP
(define-fun |top#45| ((state |top_s|)) Bool (= (|top#40| state) #b011)) ; $procmux$319_CMP
(define-fun |top#46| ((state |top_s|)) Bool (= (|top#40| state) #b010)) ; $procmux$371_CMP
(define-fun |top#47| ((state |top_s|)) Bool (= (|top#40| state) #b001)) ; $procmux$428_CMP
(define-fun |top#48| ((state |top_s|)) (_ BitVec 1) (ite (|top#47| state) ((_ extract 1 1) (|top#37| state)) (ite (|top#46| state) ((_ extract 2 2) (|top#37| state)) (ite (|top#45| state) ((_ extract 3 3) (|top#37| state)) (ite (|top#44| state) ((_ extract 4 4) (|top#37| state)) (ite (|top#43| state) ((_ extract 5 5) (|top#37| state)) (ite (|top#42| state) ((_ extract 6 6) (|top#37| state)) (ite (|top#41| state) ((_ extract 7 7) (|top#37| state)) ((_ extract 0 0) (|top#37| state)))))))))) ; $0\d_o_reg[0:0]
(define-fun |top#49| ((state |top_s|)) Bool (not (or  (= ((_ extract 0 0) (|top#40| state)) #b1) (= ((_ extract 1 1) (|top#40| state)) #b1) (= ((_ extract 2 2) (|top#40| state)) #b1)))) ; $procmux$490_CMP
(declare-fun |top#50| (|top_s|) (_ BitVec 1)) ; \selection
(define-fun |top#51| ((state |top_s|)) (_ BitVec 1) (bvnot (|top#50| state))) ; $auto$rtlil.cc:3343:ReduceOr$582
(define-fun |top#52| ((state |top_s|)) (_ BitVec 1) (bvand (ite (|top#49| state) #b1 #b0) (|top#51| state))) ; $auto$rtlil.cc:3343:ReduceOr$700
(define-fun |top#53| ((state |top_s|)) (_ BitVec 1) (bvand (ite (|top#49| state) #b1 #b0) (|top#52| state))) ; $auto$rtlil.cc:3386:And$704
(define-fun |top#54| ((state |top_s|)) (_ BitVec 1) (bvand (ite (|top#47| state) #b1 #b0) (|top#51| state))) ; $auto$rtlil.cc:3343:ReduceOr$684
(define-fun |top#55| ((state |top_s|)) (_ BitVec 1) (bvand (ite (|top#47| state) #b1 #b0) (|top#54| state))) ; $auto$rtlil.cc:3386:And$688
(define-fun |top#56| ((state |top_s|)) (_ BitVec 1) (bvand (ite (|top#46| state) #b1 #b0) (|top#51| state))) ; $auto$rtlil.cc:3343:ReduceOr$668
(define-fun |top#57| ((state |top_s|)) (_ BitVec 1) (bvand (ite (|top#46| state) #b1 #b0) (|top#56| state))) ; $auto$rtlil.cc:3386:And$672
(define-fun |top#58| ((state |top_s|)) (_ BitVec 1) (bvand (ite (|top#45| state) #b1 #b0) (|top#51| state))) ; $auto$rtlil.cc:3343:ReduceOr$652
(define-fun |top#59| ((state |top_s|)) (_ BitVec 1) (bvand (ite (|top#45| state) #b1 #b0) (|top#58| state))) ; $auto$rtlil.cc:3386:And$656
(define-fun |top#60| ((state |top_s|)) (_ BitVec 1) (bvand (ite (|top#44| state) #b1 #b0) (|top#51| state))) ; $auto$rtlil.cc:3343:ReduceOr$636
(define-fun |top#61| ((state |top_s|)) (_ BitVec 1) (bvand (ite (|top#44| state) #b1 #b0) (|top#60| state))) ; $auto$rtlil.cc:3386:And$640
(define-fun |top#62| ((state |top_s|)) (_ BitVec 1) (bvand (ite (|top#43| state) #b1 #b0) (|top#51| state))) ; $auto$rtlil.cc:3343:ReduceOr$620
(define-fun |top#63| ((state |top_s|)) (_ BitVec 1) (bvand (ite (|top#43| state) #b1 #b0) (|top#62| state))) ; $auto$rtlil.cc:3386:And$624
(define-fun |top#64| ((state |top_s|)) (_ BitVec 1) (bvand (ite (|top#42| state) #b1 #b0) (|top#51| state))) ; $auto$rtlil.cc:3343:ReduceOr$604
(define-fun |top#65| ((state |top_s|)) (_ BitVec 1) (bvand (ite (|top#42| state) #b1 #b0) (|top#64| state))) ; $auto$rtlil.cc:3386:And$608
(define-fun |top#66| ((state |top_s|)) (_ BitVec 1) (bvand (ite (|top#41| state) #b1 #b0) (|top#51| state))) ; $auto$rtlil.cc:3343:ReduceOr$588
(define-fun |top#67| ((state |top_s|)) (_ BitVec 1) (bvand (ite (|top#41| state) #b1 #b0) (|top#66| state))) ; $auto$rtlil.cc:3386:And$592
(define-fun |top#68| ((state |top_s|)) Bool (or  (= ((_ extract 0 0) (|top#53| state)) #b1) (= ((_ extract 0 0) (|top#55| state)) #b1) (= ((_ extract 0 0) (|top#57| state)) #b1) (= ((_ extract 0 0) (|top#59| state)) #b1) (= ((_ extract 0 0) (|top#61| state)) #b1) (= ((_ extract 0 0) (|top#63| state)) #b1) (= ((_ extract 0 0) (|top#65| state)) #b1) (= ((_ extract 0 0) (|top#67| state)) #b1))) ; $auto$rtlil.cc:3343:ReduceOr$706
(define-fun |top#69| ((state |top_s|)) (_ BitVec 1) (ite (|top#68| state) (|top#21| state) (|top#48| state))) ; \d_o_reg
; yosys-smt2-wire d_o_reg 1
(define-fun |top_n d_o_reg| ((state |top_s|)) Bool (= ((_ extract 0 0) (|top#69| state)) #b1))
(declare-fun |top#70| (|top_s|) Bool) ; \enable
; yosys-smt2-input enable 1
; yosys-smt2-wire enable 1
; yosys-smt2-witness {"offset": 0, "path": ["\\enable"], "smtname": "enable", "smtoffset": 0, "type": "input", "width": 1}
(define-fun |top_n enable| ((state |top_s|)) Bool (|top#70| state))
; yosys-smt2-register f_past_valid 1
; yosys-smt2-wire f_past_valid 1
(define-fun |top_n f_past_valid| ((state |top_s|)) Bool (= ((_ extract 0 0) (|top#26| state)) #b1))
; yosys-smt2-witness {"offset": 0, "path": ["\\fmsv_init_cnt"], "smtname": 71, "smtoffset": 0, "type": "reg", "width": 2}
(declare-fun |top#71| (|top_s|) (_ BitVec 2)) ; \fmsv_init_cnt
; yosys-smt2-register fmsv_init_cnt 2
; yosys-smt2-wire fmsv_init_cnt 2
(define-fun |top_n fmsv_init_cnt| ((state |top_s|)) (_ BitVec 2) (|top#71| state))
(define-fun |top#72| ((state |top_s|)) (_ BitVec 1) (bvnot ((_ extract 7 7) (|top#36| state)))) ; $procmux$165_CMP
(define-fun |top#73| ((state |top_s|)) (_ BitVec 3) (ite (= ((_ extract 0 0) (|top#72| state)) #b1) #b110 (ite (= ((_ extract 7 7) (|top#36| state)) #b1) #b111 (|top#16| state)))) ; $24\nstate[2:0]
(define-fun |top#74| ((state |top_s|)) (_ BitVec 1) (bvnot ((_ extract 7 7) (|top#37| state)))) ; $procmux$156_CMP
(define-fun |top#75| ((state |top_s|)) (_ BitVec 3) (ite (= ((_ extract 0 0) (|top#74| state)) #b1) #b110 (ite (= ((_ extract 7 7) (|top#37| state)) #b1) #b111 (|top#17| state)))) ; $25\nstate[2:0]
(define-fun |top#76| ((state |top_s|)) (_ BitVec 3) (ite (= ((_ extract 0 0) (|top#50| state)) #b1) (|top#75| state) (|top#73| state))) ; $23\nstate[2:0]
(define-fun |top#77| ((state |top_s|)) (_ BitVec 1) (bvnot ((_ extract 6 6) (|top#36| state)))) ; $procmux$198_CMP
(define-fun |top#78| ((state |top_s|)) (_ BitVec 3) (ite (= ((_ extract 0 0) (|top#77| state)) #b1) #b101 (ite (= ((_ extract 6 6) (|top#36| state)) #b1) #b100 (|top#14| state)))) ; $21\nstate[2:0]
(define-fun |top#79| ((state |top_s|)) (_ BitVec 1) (bvnot ((_ extract 6 6) (|top#37| state)))) ; $procmux$188_CMP
(define-fun |top#80| ((state |top_s|)) (_ BitVec 3) (ite (= ((_ extract 0 0) (|top#79| state)) #b1) #b101 (ite (= ((_ extract 6 6) (|top#37| state)) #b1) #b100 (|top#15| state)))) ; $22\nstate[2:0]
(define-fun |top#81| ((state |top_s|)) (_ BitVec 3) (ite (= ((_ extract 0 0) (|top#50| state)) #b1) (|top#80| state) (|top#78| state))) ; $20\nstate[2:0]
(define-fun |top#82| ((state |top_s|)) (_ BitVec 1) (bvnot ((_ extract 5 5) (|top#36| state)))) ; $procmux$236_CMP
(define-fun |top#83| ((state |top_s|)) (_ BitVec 3) (ite (= ((_ extract 0 0) (|top#82| state)) #b1) #b010 (ite (= ((_ extract 5 5) (|top#36| state)) #b1) #b011 (|top#12| state)))) ; $18\nstate[2:0]
(define-fun |top#84| ((state |top_s|)) (_ BitVec 1) (bvnot ((_ extract 5 5) (|top#37| state)))) ; $procmux$225_CMP
(define-fun |top#85| ((state |top_s|)) (_ BitVec 3) (ite (= ((_ extract 0 0) (|top#84| state)) #b1) #b010 (ite (= ((_ extract 5 5) (|top#37| state)) #b1) #b011 (|top#13| state)))) ; $19\nstate[2:0]
(define-fun |top#86| ((state |top_s|)) (_ BitVec 3) (ite (= ((_ extract 0 0) (|top#50| state)) #b1) (|top#85| state) (|top#83| state))) ; $17\nstate[2:0]
(define-fun |top#87| ((state |top_s|)) (_ BitVec 1) (bvnot ((_ extract 4 4) (|top#36| state)))) ; $procmux$279_CMP
(define-fun |top#88| ((state |top_s|)) (_ BitVec 3) (ite (= ((_ extract 0 0) (|top#87| state)) #b1) #b001 (ite (= ((_ extract 4 4) (|top#36| state)) #b1) #b000 (|top#10| state)))) ; $15\nstate[2:0]
(define-fun |top#89| ((state |top_s|)) (_ BitVec 1) (bvnot ((_ extract 4 4) (|top#37| state)))) ; $procmux$267_CMP
(define-fun |top#90| ((state |top_s|)) (_ BitVec 3) (ite (= ((_ extract 0 0) (|top#89| state)) #b1) #b001 (ite (= ((_ extract 4 4) (|top#37| state)) #b1) #b000 (|top#11| state)))) ; $16\nstate[2:0]
(define-fun |top#91| ((state |top_s|)) (_ BitVec 3) (ite (= ((_ extract 0 0) (|top#50| state)) #b1) (|top#90| state) (|top#88| state))) ; $14\nstate[2:0]
(define-fun |top#92| ((state |top_s|)) (_ BitVec 1) (bvnot ((_ extract 3 3) (|top#36| state)))) ; $procmux$327_CMP
(define-fun |top#93| ((state |top_s|)) (_ BitVec 3) (ite (= ((_ extract 0 0) (|top#92| state)) #b1) #b111 (ite (= ((_ extract 3 3) (|top#36| state)) #b1) #b110 (|top#8| state)))) ; $12\nstate[2:0]
(define-fun |top#94| ((state |top_s|)) (_ BitVec 1) (bvnot ((_ extract 3 3) (|top#37| state)))) ; $procmux$314_CMP
(define-fun |top#95| ((state |top_s|)) (_ BitVec 3) (ite (= ((_ extract 0 0) (|top#94| state)) #b1) #b111 (ite (= ((_ extract 3 3) (|top#37| state)) #b1) #b110 (|top#9| state)))) ; $13\nstate[2:0]
(define-fun |top#96| ((state |top_s|)) (_ BitVec 3) (ite (= ((_ extract 0 0) (|top#50| state)) #b1) (|top#95| state) (|top#93| state))) ; $11\nstate[2:0]
(define-fun |top#97| ((state |top_s|)) (_ BitVec 1) (bvnot ((_ extract 2 2) (|top#36| state)))) ; $procmux$380_CMP
(define-fun |top#98| ((state |top_s|)) (_ BitVec 3) (ite (= ((_ extract 0 0) (|top#97| state)) #b1) #b100 (ite (= ((_ extract 2 2) (|top#36| state)) #b1) #b101 (|top#6| state)))) ; $9\nstate[2:0]
(define-fun |top#99| ((state |top_s|)) (_ BitVec 1) (bvnot ((_ extract 2 2) (|top#37| state)))) ; $procmux$366_CMP
(define-fun |top#100| ((state |top_s|)) (_ BitVec 3) (ite (= ((_ extract 0 0) (|top#99| state)) #b1) #b100 (ite (= ((_ extract 2 2) (|top#37| state)) #b1) #b101 (|top#7| state)))) ; $10\nstate[2:0]
(define-fun |top#101| ((state |top_s|)) (_ BitVec 3) (ite (= ((_ extract 0 0) (|top#50| state)) #b1) (|top#100| state) (|top#98| state))) ; $8\nstate[2:0]
(define-fun |top#102| ((state |top_s|)) (_ BitVec 1) (bvnot ((_ extract 1 1) (|top#36| state)))) ; $procmux$438_CMP
(define-fun |top#103| ((state |top_s|)) (_ BitVec 3) (ite (= ((_ extract 0 0) (|top#102| state)) #b1) #b011 (ite (= ((_ extract 1 1) (|top#36| state)) #b1) #b010 (|top#4| state)))) ; $6\nstate[2:0]
(define-fun |top#104| ((state |top_s|)) (_ BitVec 1) (bvnot ((_ extract 1 1) (|top#37| state)))) ; $procmux$423_CMP
(define-fun |top#105| ((state |top_s|)) (_ BitVec 3) (ite (= ((_ extract 0 0) (|top#104| state)) #b1) #b011 (ite (= ((_ extract 1 1) (|top#37| state)) #b1) #b010 (|top#5| state)))) ; $7\nstate[2:0]
(define-fun |top#106| ((state |top_s|)) (_ BitVec 3) (ite (= ((_ extract 0 0) (|top#50| state)) #b1) (|top#105| state) (|top#103| state))) ; $5\nstate[2:0]
(define-fun |top#107| ((state |top_s|)) (_ BitVec 1) (bvnot ((_ extract 0 0) (|top#36| state)))) ; $procmux$501_CMP
(define-fun |top#108| ((state |top_s|)) (_ BitVec 3) (ite (= ((_ extract 0 0) (|top#107| state)) #b1) #b000 (ite (= ((_ extract 0 0) (|top#36| state)) #b1) #b001 (|top#2| state)))) ; $3\nstate[2:0]
(define-fun |top#109| ((state |top_s|)) (_ BitVec 1) (bvnot ((_ extract 0 0) (|top#37| state)))) ; $procmux$485_CMP
(define-fun |top#110| ((state |top_s|)) (_ BitVec 3) (ite (= ((_ extract 0 0) (|top#109| state)) #b1) #b000 (ite (= ((_ extract 0 0) (|top#37| state)) #b1) #b001 (|top#3| state)))) ; $4\nstate[2:0]
(define-fun |top#111| ((state |top_s|)) (_ BitVec 3) (ite (= ((_ extract 0 0) (|top#50| state)) #b1) (|top#110| state) (|top#108| state))) ; $2\nstate[2:0]
(define-fun |top#112| ((state |top_s|)) (_ BitVec 3) (ite (|top#49| state) (|top#111| state) (ite (|top#47| state) (|top#106| state) (ite (|top#46| state) (|top#101| state) (ite (|top#45| state) (|top#96| state) (ite (|top#44| state) (|top#91| state) (ite (|top#43| state) (|top#86| state) (ite (|top#42| state) (|top#81| state) (ite (|top#41| state) (|top#76| state) (|top#1| state)))))))))) ; \nstate
; yosys-smt2-wire nstate 3
(define-fun |top_n nstate| ((state |top_s|)) (_ BitVec 3) (|top#112| state))
; yosys-smt2-wire pstate 3
(define-fun |top_n pstate| ((state |top_s|)) (_ BitVec 3) (|top#40| state))
; yosys-smt2-input rst 1
; yosys-smt2-wire rst 1
; yosys-smt2-witness {"offset": 0, "path": ["\\rst"], "smtname": "rst", "smtoffset": 0, "type": "input", "width": 1}
(define-fun |top_n rst| ((state |top_s|)) Bool (= ((_ extract 0 0) (|top#39| state)) #b1))
; yosys-smt2-input selection 1
; yosys-smt2-wire selection 1
; yosys-smt2-witness {"offset": 0, "path": ["\\selection"], "smtname": "selection", "smtoffset": 0, "type": "input", "width": 1}
(define-fun |top_n selection| ((state |top_s|)) Bool (= ((_ extract 0 0) (|top#50| state)) #b1))
; yosys-smt2-anyinit top#113 1 dut_temp.sv:26.4-31.7
; yosys-smt2-witness {"offset": 0, "path": ["\\selection_buf"], "smtname": 113, "smtoffset": 0, "type": "init", "width": 1}
(declare-fun |top#113| (|top_s|) (_ BitVec 1)) ; \selection_buf
; yosys-smt2-register selection_buf 1
; yosys-smt2-wire selection_buf 1
(define-fun |top_n selection_buf| ((state |top_s|)) Bool (= ((_ extract 0 0) (|top#113| state)) #b1))
; yosys-smt2-anyinit top#114 1 dut_temp.sv:26.4-31.7
; yosys-smt2-witness {"offset": 0, "path": ["\\wr_en"], "smtname": 114, "smtoffset": 0, "type": "init", "width": 1}
(declare-fun |top#114| (|top_s|) (_ BitVec 1)) ; \wr_en
; yosys-smt2-output wr_en 1
; yosys-smt2-register wr_en 1
; yosys-smt2-wire wr_en 1
(define-fun |top_n wr_en| ((state |top_s|)) Bool (= ((_ extract 0 0) (|top#114| state)) #b1))
(define-fun |top#115| ((state |top_s|)) (_ BitVec 1) (ite (= ((_ extract 0 0) (|top#50| state)) #b1) #b1 #b0)) ; $2\wr_en_reg[0:0]
(define-fun |top#116| ((state |top_s|)) Bool (or  (|top#41| state) (|top#42| state) (|top#43| state) (|top#44| state) (|top#45| state) (|top#46| state) (|top#47| state) (|top#49| state))) ; $auto$opt_reduce.cc:137:opt_pmux$749
(define-fun |top#117| ((state |top_s|)) (_ BitVec 1) (ite (|top#116| state) (|top#115| state) (|top#0| state))) ; \wr_en_reg
; yosys-smt2-wire wr_en_reg 1
(define-fun |top_n wr_en_reg| ((state |top_s|)) Bool (= ((_ extract 0 0) (|top#117| state)) #b1))
(define-fun |top#118| ((state |top_s|)) (_ BitVec 1) (bvnot (ite (|top#35| state) #b1 #b0))) ; $auto$rtlil.cc:3339:Not$813
; yosys-smt2-assume 0 $auto$formalff.cc:987:execute$814
(define-fun |top_u 0| ((state |top_s|)) Bool (or (= ((_ extract 0 0) (|top#118| state)) #b1) (not true))) ; $auto$formalff.cc:987:execute$814
(define-fun |top#119| ((state |top_s|)) Bool (not (or  (= ((_ extract 0 0) (|top#39| state)) #b1) false))) ; $logic_not$dut_temp.sv:217$54_Y
(define-fun |top#120| ((state |top_s|)) Bool (bvult (|top#71| state) #b10)) ; $lt$dut_temp.sv:217$52_Y
(define-fun |top#121| ((state |top_s|)) (_ BitVec 1) (ite (|top#120| state) #b1 #b0)) ; $assume$dut_temp.sv:217$53_EN
; yosys-smt2-assume 1 _witness_.check_assume_dut_temp_sv_217_53 dut_temp.sv:217.39-217.51
(define-fun |top_u 1| ((state |top_s|)) Bool (or (|top#119| state) (not (= ((_ extract 0 0) (|top#121| state)) #b1)))) ; _witness_.check_assume_dut_temp_sv_217_53
; yosys-smt2-assert 0 a_nstate_trans_001_to_010_r4_alt
(define-fun |top_a 0| ((state |top_s|)) Bool (or (= ((_ extract 0 0) (|top#20| state)) #b1) (not (= ((_ extract 0 0) (|top#18| state)) #b1)))) ; a_nstate_trans_001_to_010_r4_alt
(define-fun |top#122| ((state |top_s|)) (_ BitVec 2) (bvadd (|top#71| state) #b01)) ; $add$dut_temp.sv:216$50_Y
(define-fun |top#123| ((state |top_s|)) Bool (bvult (|top#71| state) #b11)) ; $lt$dut_temp.sv:216$49_Y
(define-fun |top#124| ((state |top_s|)) (_ BitVec 2) (ite (|top#123| state) (|top#122| state) (|top#71| state))) ; $0\fmsv_init_cnt[1:0]
(define-fun |top#125| ((state |top_s|)) Bool (= (|top#112| state) #b010)) ; $eq$dut_temp.sv:288$145_Y
(define-fun |top#126| ((state |top_s|)) Bool (and (or  (= ((_ extract 0 0) (|top#113| state)) #b1) false) (or  (= ((_ extract 0 0) (|top#51| state)) #b1) false))) ; $logic_and$dut_temp.sv:38$37_Y
(define-fun |top#127| ((state |top_s|)) (_ BitVec 3) (ite (|top#126| state) #b000 (|top#112| state))) ; $procmux$570_Y
(define-fun |top#128| ((state |top_s|)) (_ BitVec 3) (ite (|top#70| state) (|top#127| state) #b000)) ; $0\pstate[2:0]
(define-fun |top#129| ((state |top_s|)) (_ BitVec 3) (ite (= ((_ extract 0 0) (|top#39| state)) #b1) (|top#128| state) #b000)) ; $auto$rtlil.cc:3474:Mux$773
(define-fun |top_a| ((state |top_s|)) Bool 
  (|top_a 0| state)
)
(define-fun |top_u| ((state |top_s|)) Bool (and
  (|top_u 0| state)
  (|top_u 1| state)
))
(define-fun |top_i| ((state |top_s|)) Bool (and
  (= (= ((_ extract 0 0) (|top#18| state)) #b1) false) ; $auto$async2sync.cc:107:execute$756
  (= (= ((_ extract 0 0) (|top#20| state)) #b1) true) ; $auto$async2sync.cc:116:execute$760
  (= (= ((_ extract 0 0) (|top#26| state)) #b1) false) ; f_past_valid
  (= (|top#71| state) #b00) ; fmsv_init_cnt
))
(define-fun |top_h| ((state |top_s|)) Bool true)
(define-fun |top_t| ((state |top_s|) (next_state |top_s|)) Bool (and
  (= (|top#117| state) (|top#114| next_state)) ; $procdff$746 \wr_en
  (= (|top#50| state) (|top#113| next_state)) ; $procdff$747 \selection_buf
  (= (|top#124| state) (|top#71| next_state)) ; $procdff$738 \fmsv_init_cnt
  (= (|top#69| state) (|top#38| next_state)) ; $procdff$745 \d_o
  (= #b1 (|top#26| next_state)) ; $procdff$739 \f_past_valid
  (= (|top#50| state) (|top#25| next_state)) ; $procdff$711 \_witness_.anyinit_procdff_711
  (= (|top#40| state) (|top#24| next_state)) ; $procdff$710 \_witness_.anyinit_procdff_710
  (= (ite (|top#70| state) #b1 #b0) (|top#23| next_state)) ; $procdff$709 \_witness_.anyinit_procdff_709
  (= (|top#39| state) (|top#22| next_state)) ; $procdff$708 \_witness_.anyinit_procdff_708
  (= (|top#69| state) (|top#21| next_state)) ; $auto$proc_dlatch.cc:432:proc_dlatch$575 \_witness_.anyinit_auto_proc_dlatch_cc_432_proc_dlatch_575
  (= (ite (|top#125| state) #b1 #b0) (|top#20| next_state)) ; $auto$async2sync.cc:118:execute$761 $auto$async2sync.cc:116:execute$760
  (= (|top#129| state) (|top#19| next_state)) ; $procdff$744 \_witness_.anyinit_procdff_744
  (= (|top#34| state) (|top#18| next_state)) ; $auto$async2sync.cc:110:execute$758 $auto$async2sync.cc:107:execute$756
)) ; end of module top
; yosys-smt2-topmod top
; end of yosys output
